Input file: instance_11.lp
Input data:
num_squadre(2).
player(1, attaccante, difensore).
player(2, difensore, centrocampista).
player(3, difensore, portiere).
player(4, centrocampista, attaccante).
player(5, portiere, difensore).
player(6, centrocampista, attaccante).
player(7, centrocampista, portiere).
player(8, centrocampista, attaccante).
player(9, portiere, difensore).
player(10, portiere, centrocampista).
player(11, centrocampista, difensore).
player(12, portiere, centrocampista).
player(13, centrocampista, attaccante).
player(14, centrocampista, difensore).
different_team(1, 2).


Output Clingo:
clingo version 5.7.1
Reading from ...ed-Reasoning-Project\Clingo\implASP.lp ...
Solving...
Answer: 1
assigned(1,2,difensore) assigned(2,1,centrocampista) assigned(3,2,portiere) assigned(4,1,attaccante) assigned(5,1,difensore) assigned(6,1,centrocampista) assigned(7,1,portiere) assigned(8,2,attaccante) assigned(9,2,difensore) assigned(10,2,centrocampista) assigned(11,1,difensore) assigned(12,1,centrocampista) assigned(13,1,attaccante) assigned(14,2,centrocampista) total_penalty(1)
Optimization: 1
Answer: 2
assigned(1,1,attaccante) assigned(2,2,difensore) assigned(3,2,portiere) assigned(4,2,centrocampista) assigned(5,1,difensore) assigned(6,1,centrocampista) assigned(7,1,portiere) assigned(8,2,attaccante) assigned(9,2,difensore) assigned(10,1,centrocampista) assigned(11,1,difensore) assigned(12,1,centrocampista) assigned(13,2,centrocampista) assigned(14,2,centrocampista) total_penalty(0)
Optimization: 0
Answer: 1
assigned(1,1,attaccante) assigned(2,2,difensore) assigned(3,2,portiere) assigned(4,2,centrocampista) assigned(5,1,difensore) assigned(6,2,centrocampista) assigned(7,1,portiere) assigned(8,2,attaccante) assigned(9,1,difensore) assigned(10,1,centrocampista) assigned(11,2,difensore) assigned(12,1,centrocampista) assigned(13,2,centrocampista) assigned(14,1,centrocampista) total_penalty(0)
Optimization: 0
OPTIMUM FOUND

Models       : 3+
  Optimum    : yes
Optimization : 0
Calls        : 1
Time         : 0.005s (Solving: 0.00s 1st Model: 0.00s Unsat: 0.00s)
CPU Time     : 0.000s

Tempo di esecuzione Clingo: 0.02 secondi
